c 23_4_checker_6cl.cnf
c
c field = 23
c formula set type = 4_checker_6cl
c
p cnf 6 16
36 
38 
40 
42 
-34 
-46 
37 
39 
41 
43 
-35 
-47 
38 
40 
42 
46 
-36 
-48 
39 
41 
43 
47 
-37 
-49 
40 
42 
46 
48 
-38 
-50 
41 
43 
47 
49 
-39 
-51 
42 
46 
48 
50 
-40 
-52 
43 
47 
49 
51 
-41 
-53 
46 
48 
50 
52 
-42 
-54 
47 
49 
51 
53 
-43 
-55 
74 
104 
134 
164 
-14 
-194 
75 
105 
135 
165 
-15 
-195 
76 
108 
140 
172 
-12 
-204 
77 
109 
141 
173 
-13 
-205 
72 
100 
128 
156 
-16 
-184 
73 
101 
129 
157 
-17 
-185 
